Route #1: 28 50 63 7 61 67 43 
Route #2: 18 73 70 68 44 22 53 25 2 
Route #3: 59 39 57 9 13 35 16 23 72 
Route #4: 48 66 38 58 8 32 21 55 4 31 
Route #5: 11 42 15 37 60 36 56 34 5 20 10 
Route #6: 76 33 77 74 47 46 52 
Route #7: 29 75 49 14 40 62 51 
Route #8: 24 27 12 65 41 54 69 19 26 17 
Route #9: 3 6 71 30 64 
Route #10: 45 78 
cost 1258.61
